# Data for paper mill cutting stock problem
# From Example 2-6 in AMPL Book 
set W := 20 45 50 55 75;
set P := 1 2 3 4 5 6;

param width_roll := 110;

# Orders for each width
param order := 
20 48
45 35
50 24
55 10
75 8;

param a :
      1   2   3   4   5   6 :=
20    3   1   0   2   1   3
45    0   2   0   0   0   1
50    1   0   1   0   0   0
55    0   0   1   1   0   0
75    0   0   0   0   1   0 ;

